************************************************************************
file with basedata            : j9045_.bas
initial value random generator: 1827647591
************************************************************************
projects                      :  1
jobs (incl. supersource/sink ):  92
horizon                       :  503
RESOURCES
  - renewable                 :  4   R
  - nonrenewable              :  0   N
  - doubly constrained        :  0   D
************************************************************************
PROJECT INFORMATION:
pronr.  #jobs rel.date duedate tardcost  MPM-Time
    1     90      0       81       77       81
************************************************************************
PRECEDENCE RELATIONS:
jobnr.    #modes  #successors   successors
   1        1          3           2   3   4
   2        1          3           5   6   9
   3        1          3          11  26  35
   4        1          3           7  19  76
   5        1          3           8  17  21
   6        1          2          59  71
   7        1          3          10  13  15
   8        1          3          12  37  40
   9        1          3          14  24  27
  10        1          3          35  39  57
  11        1          3          16  30  81
  12        1          3          20  25  30
  13        1          1          59
  14        1          3          18  29  34
  15        1          2          22  75
  16        1          3          31  58  71
  17        1          2          31  85
  18        1          2          43  65
  19        1          3          28  49  50
  20        1          2          33  70
  21        1          3          23  49  64
  22        1          1          60
  23        1          3          34  41  69
  24        1          3          25  48  53
  25        1          3          33  60  64
  26        1          3          32  34  72
  27        1          3          50  67  77
  28        1          2          44  66
  29        1          3          46  52  54
  30        1          3          33  42  76
  31        1          2          32  39
  32        1          3          55  66  73
  33        1          3          39  45  54
  34        1          3          36  51  55
  35        1          3          45  77  88
  36        1          3          42  43  70
  37        1          3          38  44  56
  38        1          3          46  48  49
  39        1          1          63
  40        1          3          44  57  67
  41        1          3          42  46  87
  42        1          3          56  63  66
  43        1          3          45  73  79
  44        1          3          59  77  78
  45        1          1          47
  46        1          2          55  81
  47        1          2          63  75
  48        1          2          61  62
  49        1          3          62  74  79
  50        1          3          52  53  54
  51        1          2          56  62
  52        1          3          58  65  69
  53        1          3          58  60  72
  54        1          2          61  74
  55        1          2          57  78
  56        1          1          90
  57        1          1          91
  58        1          2          68  84
  59        1          3          64  65  70
  60        1          1          61
  61        1          1          83
  62        1          3          68  80  87
  63        1          1          91
  64        1          2          68  85
  65        1          1          72
  66        1          1          88
  67        1          3          69  71  76
  68        1          1          88
  69        1          2          80  84
  70        1          1          73
  71        1          1          74
  72        1          1          82
  73        1          2          82  86
  74        1          1          75
  75        1          2          82  85
  76        1          3          78  83  86
  77        1          1          79
  78        1          1          89
  79        1          1          80
  80        1          1          81
  81        1          1          86
  82        1          2          83  84
  83        1          1          87
  84        1          1          91
  85        1          1          90
  86        1          1          90
  87        1          1          89
  88        1          1          89
  89        1          1          92
  90        1          1          92
  91        1          1          92
  92        1          0        
************************************************************************
REQUESTS/DURATIONS:
jobnr. mode duration  R 1  R 2  R 3  R 4
------------------------------------------------------------------------
  1      1     0       0    0    0    0
  2      1     4      10   10    8    3
  3      1     6       7    8    7    7
  4      1     2       3    4    2   10
  5      1     6       5   10    1    2
  6      1     4       1    7    9    6
  7      1     5       1    6    3    7
  8      1     4      10    2    6    2
  9      1     4       2    9    2   10
 10      1     2       7    5   10    9
 11      1    10       5    8    7    7
 12      1     2       1    8    2    7
 13      1     8       1    2    9    2
 14      1     1       4    6    1    9
 15      1     2       4    7    4    9
 16      1     7       3    1    7    5
 17      1     5       6    2    4    3
 18      1     5       5    3    9    1
 19      1     7       1   10    7    3
 20      1    10      10   10    8    6
 21      1     9       4    6    3    2
 22      1     3       7    9    5    6
 23      1     3       5   10    7    7
 24      1     5      10    5    8    6
 25      1     5       8    1    1    5
 26      1     8       5    9    7    9
 27      1     7       3    3    4    7
 28      1     4       2    6    3    5
 29      1     2       8    7    3    1
 30      1     4       4    1    1    7
 31      1     4      10    8    1    4
 32      1     8       5    8    1    9
 33      1     7       9    7    5    3
 34      1     5       1    8    2    9
 35      1     5       1    6    8    7
 36      1     2       4    1    6    6
 37      1     2       7    6    3    2
 38      1     5       1    3    9    7
 39      1     8       8    3    5    7
 40      1     8       7    2    5    7
 41      1     2       8    4    1    5
 42      1     5       8    9    7    1
 43      1     8       5    4    8    9
 44      1     7       5    3    6    9
 45      1     5       8    8    1    6
 46      1     4       7    9    7    4
 47      1    10       9    5   10    3
 48      1     5       8    8    6    1
 49      1     4       6    9    7    6
 50      1     5       8    4    8    5
 51      1    10       8    2    7    8
 52      1     6      10   10    5    3
 53      1     8       1    9    5    5
 54      1     8       3    1    4    3
 55      1     1       2    8    5    4
 56      1     4      10    8    4    8
 57      1     6       2    7    9   10
 58      1    10       2    1    3    9
 59      1     8      10    3    2    6
 60      1     7       3    5    1    7
 61      1    10       8    6    7    7
 62      1     5       8    8    5    8
 63      1     1       9    4    4    3
 64      1     6       6    9   10    5
 65      1     3       9    5    3    7
 66      1     4       6    9    9    3
 67      1     1       1    2    5    1
 68      1     1       9    1   10    1
 69      1     1       7   10    2    6
 70      1     7       4    4    5    9
 71      1     9       3    6    7    6
 72      1    10       6    6    9    8
 73      1     3       7    6    6    6
 74      1     8       4    5    5    9
 75      1     2       7    6    6   10
 76      1     9       1    5    9   10
 77      1     9       6    6    2    7
 78      1     4       7    7    1    4
 79      1     2      10    5    1    8
 80      1     6       2    7    4    8
 81      1     3       4    1    7    4
 82      1     3       2    3    1    3
 83      1    10      10    3   10    5
 84      1    10       5   10    7    9
 85      1     9      10    2    1    4
 86      1    10       2    9    8    1
 87      1     6       7    5    6    4
 88      1    10       5   10    9    6
 89      1     8       2    3   10    4
 90      1     4       1   10    1    6
 91      1     8       4    1    3    7
 92      1     0       0    0    0    0
************************************************************************
RESOURCEAVAILABILITIES:
  R 1  R 2  R 3  R 4
   24   25   23   25
************************************************************************
